*<meta creator='lp_solve v5.5'>
*<meta rows=5>
*<meta columns=2>
*<meta equalities=0>
*<meta integers=0>
*<meta origsense='MAX'>
*
NAME                  
ROWS
 N  R0      
 L  capacity
 L  reg_dema
 L  discount
 G  reg_posi
 G  disc_pos
COLUMNS
    reg       R0        -617.0000000   capacity  1.0000000000
    reg       reg_dema  1.0000000000   reg_posi  1.0000000000
    disc      R0        -238.0000000   capacity  1.0000000000
    disc      discount  1.0000000000   disc_pos  1.0000000000
RHS
    RHS       capacity  166.00000000   reg_dema  100.00000000
    RHS       discount  150.00000000
ENDATA
